p cnf 214 182
a 1 2 3 4 5 6 7 8 9 10 11 12 13 14 15 16 17 18 19 20 21 22 23 24 25 0
d 26 1 2 3 4 5 6 7 8 9 10 11 12 13 0
d 27 2 3 4 5 6 7 8 9 10 11 12 13 0
d 28 14 15 16 17 18 19 20 21 22 23 24 25 0
e 35 38 39 40 44 45 47 48 51 52 54 55 59 60 77 83 89 90 101 111 120 121 130 131 139 140 148 149 156 157 166 167 174 175 0
10 -11 22 -23 35 0
-10 -11 -22 -23 35 0
-10 11 -22 23 35 0
10 11 22 23 35 0
-12 -24 38 0
12 24 38 0
-25 -39 0
13 -39 0
25 -40 0
-13 -40 0
7 8 9 19 20 21 -35 -38 39 40 44 45 47 48 51 52 54 55 59 60 -77 0
7 8 9 19 20 21 27 -28 -35 -38 39 40 44 45 47 48 51 52 54 55 59 60 0
7 8 -9 19 20 -21 -35 -38 39 40 44 45 47 48 51 52 54 55 59 60 -77 0
-14 -44 0
2 -44 0
14 -45 0
-2 -45 0
7 8 -9 19 20 -21 27 -28 -35 -38 39 40 44 45 47 48 51 52 54 55 59 60 0
-15 -47 0
3 -47 0
15 -48 0
-3 -48 0
7 -8 9 19 -20 21 -35 -38 39 40 44 45 47 48 51 52 54 55 59 60 -77 0
7 -8 9 19 -20 21 27 -28 -35 -38 39 40 44 45 47 48 51 52 54 55 59 60 0
-16 -51 0
4 -51 0
16 -52 0
-4 -52 0
7 -8 -9 19 -20 -21 -35 -38 39 40 44 45 47 48 51 52 54 55 59 60 -77 0
-17 -54 0
5 -54 0
17 -55 0
-5 -55 0
7 -8 -9 19 -20 -21 27 -28 -35 -38 39 40 44 45 47 48 51 52 54 55 59 60 0
-7 8 9 -19 20 21 -35 -38 39 40 44 45 47 48 51 52 54 55 59 60 -77 0
-7 8 9 -19 20 21 27 -28 -35 -38 39 40 44 45 47 48 51 52 54 55 59 60 0
-18 -59 0
6 -59 0
18 -60 0
-6 -60 0
-7 8 -9 -19 20 -21 -35 -38 39 40 44 45 47 48 51 52 54 55 59 60 -77 0
-7 -8 9 -19 -20 21 -35 -38 39 40 44 45 47 48 51 52 54 55 59 60 -77 0
-7 8 -9 -19 20 -21 27 -28 -35 -38 39 40 44 45 47 48 51 52 54 55 59 60 0
-7 -8 -9 -19 -20 -21 -35 -38 39 40 44 45 47 48 51 52 54 55 59 60 -77 0
-7 -8 9 -19 -20 21 27 -28 -35 -38 39 40 44 45 47 48 51 52 54 55 59 60 0
-7 -8 -9 -19 -20 -21 27 -28 -35 -38 39 40 44 45 47 48 51 52 54 55 59 60 0
-28 -77 0
27 -77 0
-27 28 77 0
-2 3 -4 -149 0
3 5 -156 0
3 -83 0
-1 -2 -5 -157 0
1 -6 -83 -166 0
6 -89 0
8 -14 20 21 -77 83 90 -101 -111 120 121 130 131 139 140 148 149 156 157 166 167 174 175 0
6 8 -14 20 21 -77 90 -101 -111 120 121 130 131 139 140 148 149 156 157 166 167 174 175 0
1 -6 -7 -14 -20 21 -77 -83 89 90 -101 -111 120 121 130 131 140 149 157 167 175 0
1 6 -83 -167 0
7 83 -174 0
7 -89 0
6 8 -14 20 -21 -77 -90 -101 -111 120 121 130 131 139 140 148 149 156 157 166 167 174 175 0
8 -89 0
-1 -8 -14 -20 -21 -77 -90 -101 -111 120 121 130 131 139 140 148 149 156 157 166 167 174 175 0
9 -90 0
2 -90 0
-2 -9 90 0
11 23 89 111 0
1 -14 20 21 -77 -89 -90 -101 -111 120 121 130 131 140 148 149 157 167 175 0
12 90 -120 0
-10 -11 -12 -13 -27 -89 -90 0
10 12 -120 0
-2 10 -13 -131 0
-2 -13 89 -131 0
10 13 -130 0
-1 -2 -10 -22 101 0
-2 10 -11 -23 111 0
2 23 111 0
-2 10 -12 -121 0
10 11 23 111 0
1 -10 -11 -12 13 26 -89 -90 -131 0
-6 -7 -8 -83 89 0
-1 7 -174 0
13 90 -130 0
-2 -13 90 -131 0
-2 -11 -23 90 111 0
-2 11 -13 -131 0
-1 10 22 101 0
-2 -11 -23 89 111 0
13 89 -130 0
10 22 89 101 0
-2 11 -12 -121 0
1 -10 -11 -12 -13 -89 -90 -130 0
-1 -2 -11 -23 111 0
2 22 101 0
1 10 -22 -89 -90 101 0
2 -120 0
-2 -10 -22 90 101 0
11 13 -130 0
11 12 -120 0
10 22 90 101 0
-1 -2 -8 -14 -20 21 -77 90 -101 -111 120 121 130 131 139 140 148 149 156 157 166 167 174 175 0
7 8 -14 20 21 -77 90 -101 -111 120 121 130 131 139 140 148 149 156 157 166 167 174 175 0
-1 11 23 111 0
2 -130 0
7 8 -14 20 -21 -77 -90 -101 -111 120 121 130 131 139 140 148 149 156 157 166 167 174 175 0
1 -10 -11 -12 -89 -90 -120 0
6 7 -174 0
-2 6 -7 -175 0
-1 -2 -12 -121 0
-24 -120 0
-2 -10 -22 89 101 0
24 -121 0
-2 12 -13 -131 0
-2 -8 -14 -20 21 -77 89 90 -101 -111 120 121 130 131 139 140 148 149 156 157 166 167 174 175 0
-1 -2 -13 -131 0
11 23 90 111 0
1 -10 22 -89 -90 101 0
13 -26 -130 0
-1 12 -120 0
-1 13 -130 0
1 -10 -11 23 -89 -90 111 0
12 13 -130 0
-25 -130 0
1 -14 20 -21 -77 -89 90 -101 -111 120 121 130 131 140 149 156 157 167 175 0
-2 -12 90 -121 0
25 -131 0
-8 -14 -20 -21 -77 89 -90 -101 -111 120 121 130 131 139 140 148 149 156 157 166 167 174 175 0
-1 8 -14 20 21 -77 90 -101 -111 120 121 130 131 139 140 148 149 156 157 166 167 174 175 0
-1 8 -14 20 -21 -77 -90 -101 -111 120 121 130 131 139 140 148 149 156 157 166 167 174 175 0
4 5 -156 0
-1 -2 -3 -140 0
3 4 -148 0
-1 2 -139 0
1 -2 -3 -139 0
1 3 -140 0
-15 -139 0
-1 3 -139 0
1 -2 -3 4 -149 0
15 -140 0
1 -10 11 -23 -89 -90 111 0
2 -156 0
1 -2 -3 -4 83 -157 0
1 2 -140 0
-16 -148 0
-1 -2 -4 -149 0
16 -149 0
1 -3 -4 -148 0
2 -148 0
1 -10 -11 12 -89 -90 -121 0
2 -83 0
5 -83 0
-1 5 -156 0
-2 -3 -4 -5 83 0
-17 -156 0
-2 -5 83 -157 0
17 -157 0
4 -83 0
1 -83 -156 0
12 89 -120 0
6 83 -166 0
83 -89 0
1 -6 -7 -14 -20 -21 -77 -83 89 -90 -101 -111 120 121 130 131 140 148 149 157 167 175 0
2 -166 0
-1 4 -148 0
-1 -2 -6 -167 0
-18 -166 0
18 -167 0
-1 6 -166 0
1 -6 7 -83 -175 0
2 -174 0
-1 -2 -7 -175 0
-2 -6 83 -167 0
-19 -174 0
-2 -7 83 -175 0
1 -6 -7 -83 -174 0
19 -175 0
2 -14 20 21 -77 -101 -111 121 131 139 140 149 157 167 175 0
2 -89 0
-2 -12 89 -121 0
8 -14 20 -21 -77 83 -90 -101 -111 120 121 130 131 139 140 148 149 156 157 166 167 174 175 0
2 3 4 5 6 7 8 9 10 11 12 13 27 0
